4 
5  02 14 25 44 52 
6  00 09 19 27 35 42 50 57 
7  05 12 20 27 35 42 50 57 
8  05 12 20 27 35 42 50 57 
9  05 12 19 27 34 42 49 57 
10  04 12 19 27 34 42 49 57 
11  04 12 19 27 34 42 49 57 
12  04 12 19 27 34 42 49 57 
13  04 12 19 27 34 42 49 57 
14  04 12 19 27 34 42 49 57 
15  04 12 19 27 34 42 49 57 
16  04 12 19 27 34 42 49 57 
17  04 12 19 27 34 42 49 57 
18  04 12 19 27 34 42 49 57 
19  04 12 19 27 34 42 49 57 
20  04 12 21 36 51 
21  06 21 36 51 
22  05 20 36 51 
23  05 
0 
